Version identifier: 22.1.1.0 | 2022-11-28 | 9160aff4d
CPXPARAM_ClockType                               1
CPXPARAM_Read_DataCheck                          1
CPXPARAM_Threads                                 1
CPXPARAM_TimeLimit                               7200
CPXPARAM_MIP_Tolerances_AbsMIPGap                0
CPXPARAM_MIP_Tolerances_MIPGap                   0
CPXPARAM_MIP_Tolerances_Integrality              0
Tried aggregator 1 time.
MIP Presolve eliminated 3023 rows and 1 columns.
MIP Presolve modified 1042 coefficients.
Reduced MIP has 5676 rows, 2499 columns, and 16914 nonzeros.
Reduced MIP has 2499 binaries, 0 generals, 0 SOSs, and 0 indicators.
Presolve time = 0.02 sec. (14.01 ticks)
Probing time = 0.00 sec. (2.89 ticks)
Tried aggregator 1 time.
Detecting symmetries...
MIP Presolve eliminated 200 rows and 0 columns.
Reduced MIP has 5476 rows, 2499 columns, and 15914 nonzeros.
Reduced MIP has 2499 binaries, 0 generals, 0 SOSs, and 0 indicators.
Presolve time = 0.02 sec. (13.61 ticks)
Probing time = 0.02 sec. (5.76 ticks)
Clique table members: 9795.
MIP emphasis: balance optimality and feasibility.
MIP search method: dynamic search.
Parallel mode: none, using 1 thread.
Root relaxation solution time = 0.30 sec. (182.78 ticks)

        Nodes                                         Cuts/
   Node  Left     Objective  IInf  Best Integer    Best Bound    ItCnt     Gap

      0     0      200.0000   870                    200.0000     2070         
*     0+    0                          158.0000      200.0000            26.58%
*     0+    0                          186.0000      200.0000             7.53%
*     0+    0                          188.0000      200.0000             6.38%
      0     0        cutoff            188.0000      200.0000     2070    6.38%
Detecting symmetries...
      0     2      200.0000   366      188.0000      200.0000     2070    6.38%
Elapsed time = 1.94 sec. (1304.55 ticks, tree = 0.01 MB, solutions = 3)
      3     5      200.0000   771      188.0000      200.0000     3601    6.38%
      8    10      200.0000   493      188.0000      200.0000     5164    6.38%
     12    14      200.0000   393      188.0000      200.0000     6702    6.38%
     16    18      200.0000   761      188.0000      200.0000     9339    6.38%
*    30+    1                          200.0000      200.0000             0.00%

Root node processing (before b&c):
  Real time             =    1.94 sec. (1304.44 ticks)
Sequential b&c:
  Real time             =    1.93 sec. (1513.55 ticks)
                          ------------
Total (root+branch&cut) =    3.87 sec. (2817.98 ticks)
Solution is feasible.

---------------------
@@@ MIP_optimal
>>> Benchmark sw100-6.cnf k 2 OPT 200 TimeCost 4.44670033454895 TimeSolve 3.9140572547912598 TimeRead 0.020585060119628906 TimeTrans 0.5120580196380615
